aod/lista2/zad4/myshortest.dat
set N := 1 2 3 4 5 6 7 8 9 10 11 12 13 14;

set A :=
(1,2) 
(2,3) (2,5)
(3,7) (3,8)
(4,8)
(5,6)
(6,7)
(7,4)
(8,9) (8,10)
(9,10) (9, 13)
(10, 12) (10, 13)
(11, 14)
(12, 11)
(13, 14)
;

param t :=
[1,2] 5
[2,3] 7 [2,5] 2
[3,7] 10 [3,8] 99
[4,8] 10
[5,6] 4
[6,7] 1
[7,4] 2
[8,9] 7 [8,10] 20
[9,10] 1 [9, 13] 5
[10, 12] 80 [10, 13] 1
[11, 14] 20
[12, 11] 100
[13, 14] 3
;

param c :=
[1,2] 3
[2,3] 4 [2,5] 5
[3,7] 7 [3,8] 1
[4,8] 4
[5,6] 10
[6,7] 1 
[7,4] 2
[8,9] 5 [8,10] 4
[9,10] 1 [9, 13] 1
[10, 12] 2 [10, 13] 1
[11, 14] 1
[12, 11] 2
[13, 14] 3
;

param i0 := 1;
param j0 := 14;
param T_max := 100;